unsat
(forall ((A (_ BitVec 1))
         (B (_ BitVec 1))
         (C (_ BitVec 1))
         (D (_ BitVec 1))
         (E (_ BitVec 1))
         (F (_ BitVec 1))
         (G (_ BitVec 1))
         (H (_ BitVec 1))
         (I (_ BitVec 1))
         (J (_ BitVec 1))
         (K (_ BitVec 4))
         (L (_ BitVec 4))
         (M (_ BitVec 1))
         (N (_ BitVec 1))
         (O (_ BitVec 1))
         (P (_ BitVec 1))
         (Q (_ BitVec 1))
         (R (_ BitVec 1))
         (S (_ BitVec 2))
         (T (_ BitVec 2))
         (U (_ BitVec 1))
         (V (_ BitVec 1))
         (W (_ BitVec 1))
         (X (_ BitVec 1))
         (Y (_ BitVec 32))
         (Z (_ BitVec 1))
         (A1 (_ BitVec 22))
         (B1 (_ BitVec 32))
         (C1 (_ BitVec 1))
         (D1 (_ BitVec 1))
         (E1 (_ BitVec 1))
         (F1 (_ BitVec 1))
         (G1 (_ BitVec 1))
         (H1 (_ BitVec 5))
         (I1 (_ BitVec 32))
         (J1 (_ BitVec 1))
         (K1 (_ BitVec 1))
         (L1 (_ BitVec 1))
         (M1 (_ BitVec 1))
         (N1 (_ BitVec 36))
         (O1 (_ BitVec 3))
         (P1 (_ BitVec 1))
         (Q1 (_ BitVec 22))
         (R1 (_ BitVec 10))
         (S1 (_ BitVec 1))
         (T1 (_ BitVec 1))
         (U1 (_ BitVec 1))
         (V1 (_ BitVec 2))
         (W1 (_ BitVec 1))
         (X1 (_ BitVec 1))
         (Y1 (_ BitVec 32))
         (Z1 (_ BitVec 1))
         (A2 (_ BitVec 4))
         (B2 (_ BitVec 1))
         (C2 (_ BitVec 22))
         (D2 (_ BitVec 1)))
  (! (let ((a!1 (or (not (= M1 #b1))
                    (not (= P1 #b0))
                    (not (= ((_ extract 12 12) I1) #b0))
                    (= V1 #b00)))
           (a!2 (or (not ((_ bit2bool 3) R1))
                    (not (= ((_ extract 12 4) B1) ((_ extract 15 7) B1)))))
           (a!3 (and (= ((_ extract 8 8) R1) #b0)
                     (= ((_ extract 7 7) R1) #b0)
                     (= ((_ extract 6 6) R1) #b0)
                     (= ((_ extract 5 5) R1) #b0)
                     (= ((_ extract 4 4) R1) #b0)
                     (= ((_ extract 3 3) R1) #b0)
                     (= ((_ extract 2 2) R1) #b0)
                     (= ((_ extract 1 1) R1) #b0)
                     (= ((_ extract 0 0) R1) #b0)
                     (= ((_ extract 9 9) R1) #b0)))
           (a!4 (not (= (concat ((_ extract 31 17) B1)
                                ((_ extract 15 7) B1)
                                ((_ extract 7 0) B1))
                        B1)))
           (a!5 (or (not (= ((_ extract 0 0) O1) #b1))
                    (not ((_ bit2bool 0) C1))))
           (a!6 (or (not (= R #b0))
                    ((_ bit2bool 0) D1)
                    (not ((_ bit2bool 0) W))
                    (not (= ((_ extract 1 1) O1) #b1))))
           (a!7 (or (not (= V1 #b10))
                    (ite (= G1 #b1)
                         (= ((_ extract 4 4) R1) #b0)
                         (= ((_ extract 5 5) R1) #b0))))
           (a!8 (not (= ((_ extract 4 1) (bvadd #b11111 H1)) #x0)))
           (a!9 (or ((_ bit2bool 0) U)
                    (not (= R #b0))
                    (not (= X #b1))
                    (not (= ((_ extract 1 1) O1) #b1))))
           (a!10 (or (not ((_ bit2bool 7) R1))
                     (not (= O1 #b001))
                     (not (= R #b0))
                     (not (= ((_ extract 2 2) L) #b0))))
           (a!11 (or (not ((_ bit2bool 7) R1))
                     (not (= R #b0))
                     ((_ bit2bool 3) K)
                     (not (= ((_ extract 1 1) O1) #b1))))
           (a!12 (not (= B1
                         (concat ((_ extract 31 17) B1)
                                 #b0000110
                                 L1
                                 F1
                                 ((_ extract 7 0) B1))))))
     (let ((a!13 (and (or (not ((_ bit2bool 8) R1)) (not (= F1 #b0)))
                      (not (= J1 #b1))
                      (or ((_ bit2bool 0) D1) (not ((_ bit2bool 0) R1)))
                      (or ((_ bit2bool 0) T1) (not ((_ bit2bool 0) R1)))
                      (or (not ((_ bit2bool 0) P1)) (not ((_ bit2bool 0) R1)))
                      (or (= H #b0) (not (= M #b0)))
                      (or ((_ bit2bool 0) S1) (not (= T1 #b0)) (not (= H #b1)))
                      (or ((_ bit2bool 0) S1) (not ((_ bit2bool 1) R1)))
                      (or (not (= M1 #b1))
                          ((_ bit2bool 0) P1)
                          (not (= I #b0))
                          (not ((_ bit2bool 11) B1)))
                      (or (not (= G1 #b1)) (= O1 #b000))
                      (or (not ((_ bit2bool 0) P1)) (not ((_ bit2bool 1) R1)))
                      (or (not ((_ bit2bool 1) R1)) (not ((_ bit2bool 11) B1)))
                      (or (not (= V #b1)) (not (= M1 #b1)))
                      a!1
                      (or ((_ bit2bool 5) N1) (not (= S1 #b0)) (= Z #b1))
                      (or (= V1 #b00)
                          (not (= Z #b0))
                          (not (= M1 #b1))
                          (not (= P1 #b0)))
                      (or (not (= X #b1))
                          (not (= G1 #b1))
                          (not ((_ bit2bool 0) T1)))
                      (or (= V1 #b00)
                          (not (= U #b0))
                          (not (= M1 #b1))
                          (not (= P1 #b0)))
                      (or (not ((_ bit2bool 0) R1)) (not (= F1 #b0)))
                      (or (= O1 #b000)
                          (not ((_ bit2bool 0) R1))
                          (not (= X #b1)))
                      (or (= H1 #b00000)
                          (not ((_ bit2bool 1) R1))
                          ((_ bit2bool 0) T1))
                      (or (not (= M1 #b1)) (not (= H #b1)))
                      (or (not ((_ bit2bool 0) R1))
                          (= ((_ extract 0 0) H1) #b1))
                      (or (not ((_ bit2bool 0) R1))
                          (= ((_ extract 3 3) H1) #b1))
                      (or (not ((_ bit2bool 1) R1))
                          (= ((_ extract 3 3) H1) #b1))
                      (or ((_ bit2bool 5) N1) (not (= S1 #b0)) (= M1 #b0))
                      (or (not ((_ bit2bool 0) R1))
                          (not (= X #b1))
                          (not ((_ bit2bool 8) I1)))
                      (or ((_ bit2bool 0) T1) (not ((_ bit2bool 2) R1)))
                      (or (not (= T1 #b0)) (= W #b0) (= D1 #b1))
                      (or (not (= X #b1)) (not (= H #b1)))
                      (or ((_ bit2bool 0) S1) (not ((_ bit2bool 2) R1)))
                      (or (not (= V #b1)) (= ((_ extract 0 0) O1) #b1))
                      (or (not ((_ bit2bool 2) R1)) (not (= X #b1)))
                      (or (not ((_ bit2bool 2) R1)) (not (= P1 #b1)))
                      (or ((_ bit2bool 3) K) (not ((_ bit2bool 2) R1)))
                      (or (not ((_ bit2bool 2) R1)) ((_ bit2bool 2) L))
                      (or ((_ bit2bool 2) K) (not ((_ bit2bool 2) R1)))
                      (or ((_ bit2bool 0) D1)
                          (not (= H1 #b00000))
                          (not ((_ bit2bool 0) W)))
                      (or ((_ bit2bool 2) K) (not ((_ bit2bool 3) R1)))
                      a!2
                      (or (not (= I #b1))
                          (not (= G1 #b1))
                          ((_ bit2bool 0) D1)
                          (not ((_ bit2bool 0) W)))
                      (or (not (= I #b1))
                          (not (= O1 #b001))
                          ((_ bit2bool 0) D1)
                          (not ((_ bit2bool 0) W)))
                      (or (not (= U #b0))
                          (not (= M1 #b1))
                          ((_ bit2bool 0) P1)
                          (not ((_ bit2bool 11) B1)))
                      (or a!3 (not ((_ bit2bool 0) Z)))
                      (or (not ((_ bit2bool 3) R1)) a!4)
                      (or a!3 (not (= M1 #b0)))
                      (or (not (= P1 #b1)) (not ((_ bit2bool 3) R1)))
                      (or (not (= G #b1)) (= ((_ extract 0 0) O1) #b1))
                      a!5
                      (or (not (= O1 #b001)) (not (= G #b0)))
                      (or (not ((_ bit2bool 1) O1))
                          (not ((_ bit2bool 0) O1))
                          (not (= N #b0)))
                      (or (not (= R #b0))
                          (not (= O1 #b010))
                          ((_ bit2bool 0) D1))
                      (or (not ((_ bit2bool 2) R1))
                          (not (= O1 #b001))
                          (not (= R #b0))
                          (not (= D1 #b0)))
                      (or (not ((_ bit2bool 2) R1))
                          (not (= R #b0))
                          (not (= O1 #b000))
                          ((_ bit2bool 0) C1))
                      (or (not ((_ bit2bool 2) R1))
                          ((_ bit2bool 3) H1)
                          ((_ bit2bool 1) H1))
                      (or (not ((_ bit2bool 1) O1)) (not ((_ bit2bool 2) O1)))
                      (or (not ((_ bit2bool 3) R1)) (not (= S1 #b0)))
                      (or (= H1 #b00000)
                          (not ((_ bit2bool 3) R1))
                          ((_ bit2bool 0) T1))
                      (or (= V1 #b00) (not (= J #b0)))
                      (or ((_ bit2bool 0) S1) (not ((_ bit2bool 4) R1)))
                      (or ((_ bit2bool 2) K) (= ((_ extract 4 4) R1) #b0))
                      (or (not (= O1 #b001))
                          (not (= R #b0))
                          (not ((_ bit2bool 3) R1))
                          ((_ bit2bool 0) D1))
                      (or (not (= R #b0))
                          (not ((_ bit2bool 3) R1))
                          (not (= O1 #b000))
                          ((_ bit2bool 0) C1))
                      (or (not (= I #b1)) ((_ bit2bool 0) D1) (not (= C1 #b1)))
                      (or (not (= R #b0))
                          (not (= G1 #b1))
                          ((_ bit2bool 0) D1)
                          (not ((_ bit2bool 0) W)))
                      (or (not (= R #b0)) (not (= C1 #b1)) (= D1 #b1))
                      (or (not (= N #b1)) (= ((_ extract 0 0) O1) #b1))
                      (or (not ((_ bit2bool 2) R1))
                          ((_ bit2bool 3) H1)
                          ((_ bit2bool 0) H1))
                      (or (not ((_ bit2bool 4) R1)) (not (= X #b1)))
                      (or ((_ bit2bool 0) T1) (not ((_ bit2bool 4) R1)))
                      (or ((_ bit2bool 2) K) (= ((_ extract 5 5) R1) #b0))
                      (or (not ((_ bit2bool 5) R1)) (not (= S1 #b0)))
                      (or (not (= M1 #b1))
                          (not (= P1 #b0))
                          (not (= I #b0))
                          (= V1 #b00))
                      (or ((_ bit2bool 3) K) (not ((_ bit2bool 5) R1)))
                      (or (= V1 #b00)
                          (not (= M1 #b1))
                          (not (= P1 #b0))
                          (not (= M #b0)))
                      (or (not (= O1 #b001))
                          (not (= R #b0))
                          ((_ bit2bool 5) N1)
                          (not (= D1 #b0)))
                      (or (not ((_ bit2bool 4) R1))
                          (not (= R #b0))
                          (not (= O1 #b000))
                          ((_ bit2bool 5) N1)
                          ((_ bit2bool 0) C1))
                      (or (not (= N #b1)) (= ((_ extract 1 1) O1) #b1))
                      a!6
                      (or (not (= O1 #b100))
                          (not (= R #b0))
                          ((_ bit2bool 0) D1)
                          (not ((_ bit2bool 0) W)))
                      (or (not ((_ bit2bool 2) R1))
                          ((_ bit2bool 3) H1)
                          ((_ bit2bool 2) H1))
                      (or (not ((_ bit2bool 3) R1))
                          ((_ bit2bool 3) H1)
                          ((_ bit2bool 2) H1))
                      a!7
                      (or (= H1 #b00000)
                          (not ((_ bit2bool 5) R1))
                          ((_ bit2bool 0) T1))
                      (or (not ((_ bit2bool 5) R1)) a!4)
                      (or (not ((_ bit2bool 32) N1)) (not (= S1 #b0)))
                      (or (not (= J #b0)) (= T1 #b1))
                      (or (not (= P1 #b1)) (not ((_ bit2bool 4) R1)))
                      (or (not (= P1 #b1)) (not ((_ bit2bool 5) R1)))
                      (or (not ((_ bit2bool 5) R1)) (not (= X #b1)))
                      (or ((_ bit2bool 0) O1)
                          (not ((_ bit2bool 5) R1))
                          (not ((_ bit2bool 1) O1))
                          (not (= D1 #b0)))
                      (or (not ((_ bit2bool 5) R1))
                          (not (= O1 #b001))
                          (not (= D1 #b0)))
                      (or ((_ bit2bool 0) C1)
                          (not ((_ bit2bool 5) R1))
                          (not (= G1 #b1)))
                      (or (not ((_ bit2bool 4) R1)) a!8)
                      (or (not ((_ bit2bool 7) R1)) a!4)
                      (or (not ((_ bit2bool 6) R1)) (not (= X #b1)))
                      (or (= H1 #b00000)
                          (not ((_ bit2bool 6) R1))
                          ((_ bit2bool 0) T1))
                      (or (not ((_ bit2bool 6) R1)) (not (= H1 #b00000)))
                      (or ((_ bit2bool 0) S1) (not ((_ bit2bool 6) R1)))
                      (not (= ((_ extract 1 1) N1) #b1))
                      (or ((_ bit2bool 0) U)
                          (not (= O1 #b001))
                          (not (= R #b0))
                          (not (= X #b1)))
                      a!9
                      (or (not ((_ bit2bool 3) R1))
                          ((_ bit2bool 3) H1)
                          ((_ bit2bool 1) H1))
                      (or (not ((_ bit2bool 4) R1))
                          ((_ bit2bool 3) H1)
                          ((_ bit2bool 2) H1))
                      (or (not ((_ bit2bool 5) R1)) a!8)
                      (or (not (= H1 #b00001)) (not ((_ bit2bool 6) R1)))
                      (or (= ((_ extract 7 7) R1) #b0) (not (= H1 #b00000)))
                      (or (= O1 #b000)
                          (not (= M1 #b1))
                          (not (= S1 #b0))
                          (not ((_ bit2bool 0) T1))
                          (not ((_ bit2bool 0) Z)))
                      (or ((_ bit2bool 0) T1) (= ((_ extract 7 7) R1) #b0))
                      (or (not ((_ bit2bool 7) R1)) (not (= S1 #b0)))
                      (or (not ((_ bit2bool 7) R1))
                          (not (= O1 #b001))
                          (not (= R #b0))
                          (not (= D1 #b0)))
                      (or (not ((_ bit2bool 7) R1))
                          (not (= R #b0))
                          (not (= O1 #b000))
                          ((_ bit2bool 0) C1))
                      (or (not ((_ bit2bool 5) N1)) (not ((_ bit2bool 8) R1)))
                      (or (not ((_ bit2bool 4) R1))
                          ((_ bit2bool 3) H1)
                          ((_ bit2bool 0) H1)
                          ((_ bit2bool 1) H1))
                      (or (not ((_ bit2bool 5) R1))
                          ((_ bit2bool 3) H1)
                          ((_ bit2bool 2) H1)
                          ((_ bit2bool 4) H1))
                      (or (not (= H1 #b00010)) (not ((_ bit2bool 6) R1)))
                      (or (not (= H1 #b00001)) (not ((_ bit2bool 7) R1)))
                      (or (not ((_ bit2bool 8) R1)) (not (= H1 #b00000)))
                      (or ((_ bit2bool 0) T1) (= ((_ extract 8 8) R1) #b0))
                      (or (not (= R #b0))
                          (not ((_ bit2bool 8) R1))
                          (not (= O1 #b000))
                          ((_ bit2bool 0) C1))
                      (or (= ((_ extract 9 9) R1) #b0) (not (= V1 #b10)))
                      (or (not ((_ bit2bool 9) R1))
                          (= ((_ extract 0 0) O1) #b1))
                      (or (not (= O1 #b001))
                          (not (= R #b0))
                          ((_ bit2bool 0) D1)
                          (not ((_ bit2bool 0) W)))
                      (or ((_ bit2bool 2) K) (= ((_ extract 6 6) R1) #b0))
                      (or ((_ bit2bool 2) K)
                          (not (= R #b0))
                          (= ((_ extract 7 7) R1) #b0))
                      (or ((_ bit2bool 3) K) (not ((_ bit2bool 6) R1)))
                      (or (= ((_ extract 8 8) R1) #b0)
                          (= ((_ extract 1 1) V1) #b1)
                          ((_ bit2bool 2) K)
                          (not (= R #b0)))
                      (or (= ((_ extract 9 9) R1) #b0)
                          ((_ bit2bool 2) K)
                          (not (= R #b0))
                          ((_ bit2bool 1) V1))
                      (or (not ((_ bit2bool 5) N1))
                          (= ((_ extract 9 9) R1) #b0))
                      (or (not ((_ bit2bool 6) R1)) (not (= P1 #b1)))
                      (or (not ((_ bit2bool 7) R1))
                          ((_ bit2bool 2) K)
                          (= ((_ extract 0 0) O1) #b1))
                      a!10
                      (or (not ((_ bit2bool 7) R1))
                          ((_ bit2bool 3) K)
                          (= ((_ extract 0 0) O1) #b1))
                      a!11
                      (or (not ((_ bit2bool 7) R1))
                          (not (= O1 #b001))
                          (not (= R #b0))
                          ((_ bit2bool 3) K))
                      (or (not (= P1 #b1)) (not ((_ bit2bool 7) R1)))
                      (or ((_ bit2bool 2) K)
                          (not ((_ bit2bool 8) R1))
                          (= ((_ extract 0 0) O1) #b1))
                      (or ((_ bit2bool 2) K)
                          (not (= M #b0))
                          (= ((_ extract 9 9) R1) #b0))
                      (or (not (= P1 #b1)) (not ((_ bit2bool 8) R1)))
                      (or (not (= O1 #b001)) (not ((_ bit2bool 8) R1)) a!12)
                      (or a!3 (= V1 #b00) ((_ bit2bool 0) T1))
                      (or (not ((_ bit2bool 6) R1))
                          (= D1 #b1)
                          (not (= N #b0))
                          (= ((_ extract 2 2) O1) #b1))
                      (or (not ((_ bit2bool 6) R1))
                          (not (= O1 #b000))
                          ((_ bit2bool 0) C1))
                      (or (not ((_ bit2bool 4) R1))
                          (not (= R #b0))
                          ((_ bit2bool 0) D1)
                          (not (= N #b0))
                          (= ((_ extract 2 2) O1) #b1))
                      (or (not ((_ bit2bool 1) R1)) (not (= F1 #b0)))
                      (or (not ((_ bit2bool 2) R1)) (not (= F1 #b0)))
                      (or (not ((_ bit2bool 3) R1)) (not (= F1 #b0)))
                      (or (not ((_ bit2bool 4) R1)) (not (= F1 #b0)))
                      (or (not ((_ bit2bool 5) R1)) (not (= F1 #b0)))
                      (or (not ((_ bit2bool 6) R1)) (not (= F1 #b0)))
                      (or (not ((_ bit2bool 7) R1)) (not (= F1 #b0))))))
       (= (INV!slice!1 A
                       B
                       C
                       D
                       E
                       F
                       G
                       H
                       I
                       J
                       K
                       L
                       M
                       N
                       O
                       P
                       Q
                       R
                       S
                       T
                       U
                       V
                       W
                       X
                       Y
                       Z
                       A1
                       B1
                       C1
                       D1
                       E1
                       F1
                       G1
                       H1
                       I1
                       J1
                       K1
                       L1
                       M1
                       N1
                       O1
                       P1
                       Q1
                       R1
                       S1
                       T1
                       U1
                       V1
                       W1
                       X1
                       Y1
                       Z1
                       A2
                       B2
                       C2
                       D2)
          a!13)))
     :weight 0))
